qViagens = 3;
qPontosCarga = 1;
qBetoneiras = 2;
M = 1440;
dp = [
[25],
[25],
[25]
];
dv = [
[32.8],
[32.3],
[36.8]
];
td = [15.4, 14.2, 16.8];
tmaxvc = [120, 120, 120];
hs = [410, 890.5, 507.6];
c = [
[42.8],
[42.1],
[46.8]
];
qvMax = [33];
cuve = [5.8];
